************************************************************************
file with basedata            : cn364_.bas
initial value random generator: 1504982641
************************************************************************
projects                      :  1
jobs (incl. supersource/sink ):  18
horizon                       :  124
RESOURCES
  - renewable                 :  2   R
  - nonrenewable              :  3   N
  - doubly constrained        :  0   D
************************************************************************
PROJECT INFORMATION:
pronr.  #jobs rel.date duedate tardcost  MPM-Time
    1     16      0       23        5       23
************************************************************************
PRECEDENCE RELATIONS:
jobnr.    #modes  #successors   successors
   1        1          3           2   3   4
   2        3          3           6   9  10
   3        3          3           5   8  14
   4        3          3           5  13  14
   5        3          1           7
   6        3          3           7  11  16
   7        3          2          15  17
   8        3          2          16  17
   9        3          2          11  12
  10        3          2          12  13
  11        3          2          13  15
  12        3          1          14
  13        3          1          17
  14        3          2          15  16
  15        3          1          18
  16        3          1          18
  17        3          1          18
  18        1          0        
************************************************************************
REQUESTS/DURATIONS:
jobnr. mode duration  R 1  R 2  N 1  N 2  N 3
------------------------------------------------------------------------
  1      1     0       0    0    0    0    0
  2      1     1      10    9    4   10    8
         2     5      10    6    3    9    6
         3     9      10    4    2    6    6
  3      1     2       3   10    7    6    5
         2     3       3    6    6    6    4
         3     5       3    1    6    6    3
  4      1     6       6    9    7    5   10
         2     7       5    8    6    5   10
         3    10       2    8    6    5   10
  5      1     2       9    6   10    9    9
         2     5       3    3    8    9    4
         3     5       3    1    9    9    5
  6      1     2       5    7    3    5    6
         2     4       5    7    2    4    5
         3     7       4    5    2    1    5
  7      1     7       9    5    8    3    4
         2     8       5    4    5    3    3
         3     9       1    3    4    2    3
  8      1     2       4    8    9    9    8
         2     6       4    7    9    9    8
         3     8       1    7    9    9    6
  9      1     6       8    9    9    8    7
         2     7       5    6    8    5    7
         3     9       3    5    8    5    7
 10      1     5       5    9    8    8   10
         2     6       5    9    7    7    9
         3     7       5    9    6    5    9
 11      1     1       5    8    8    8    7
         2     2       4    4    6    6    7
         3     3       4    3    3    5    5
 12      1     1       8    4    8    9    7
         2     9       7    2    7    3    7
         3     9       7    2    7    5    6
 13      1     2       3    8    6    3    6
         2     4       3    4    6    2    5
         3     6       2    3    4    2    5
 14      1     3       8    8    7    8    5
         2     9       8    8    6    8    5
         3    10       6    8    5    6    1
 15      1     1       8    5   10    6    5
         2     6       7    3    8    6    2
         3     7       6    1    7    6    1
 16      1     4       8    5    7    7    9
         2     5       6    4    7    7    9
         3    10       5    4    7    6    8
 17      1     8       5    6    4    5    7
         2    10       5    5    4    5    5
         3    10       5    5    3    4    6
 18      1     0       0    0    0    0    0
************************************************************************
RESOURCEAVAILABILITIES:
  R 1  R 2  N 1  N 2  N 3
   28   44  115  109  113
************************************************************************
